c This is UnifRandomKSATGenerator
c uniform random 3-SAT generated instance with: 
c clause length: 3 
c number variables: 20 
c number clauses: 85 
c clause to variable ratio: 4.27 
c random number generator name: SHA1PRNG 
c random number generator provider: SUN 
c random number generator seed: 6516338549575504013 
p cnf 20 85
-11 7 -16 0
1 20 -14 0
16 -20 14 0
-18 -10 -14 0
-10 -3 -20 0
-17 16 12 0
-3 -6 -14 0
-17 19 12 0
8 -11 10 0
9 4 -13 0
8 9 -7 0
2 13 -14 0
8 13 -7 0
8 -3 19 0
19 -15 -8 0
-19 -5 -7 0
17 -19 20 0
11 -14 15 0
-9 2 -20 0
-19 4 -7 0
-17 -3 -20 0
-9 1 -3 0
-9 -12 4 0
-2 3 7 0
9 -3 15 0
1 -3 7 0
1 -3 10 0
13 7 15 0
8 18 15 0
-5 -6 13 0
-10 19 -5 0
8 2 -15 0
-2 -18 -12 0
-2 -19 -14 0
8 -4 -14 0
-1 17 14 0
1 10 12 0
-2 10 4 0
-10 18 4 0
2 4 13 0
18 -4 -6 0
3 20 6 0
16 -18 13 0
16 11 -15 0
1 -12 -7 0
-19 3 20 0
8 -2 5 0
16 11 15 0
-1 20 7 0
-17 -7 -8 0
1 3 20 0
8 9 19 0
8 -17 15 0
4 5 -7 0
8 18 -5 0
16 1 12 0
8 3 12 0
-2 -10 20 0
16 -12 -15 0
-20 3 15 0
-1 4 -6 0
-10 17 7 0
-9 1 10 0
10 -3 -11 0
9 -4 3 0
17 2 15 0
-9 -18 19 0
-2 -19 3 0
-2 -4 -16 0
16 18 -14 0
-17 2 -6 0
10 -4 -20 0
-1 -4 -8 0
2 11 -13 0
19 -7 14 0
9 -2 -11 0
17 -4 12 0
-18 -19 6 0
-17 9 -14 0
-9 2 19 0
16 -19 15 0
-1 2 -15 0
16 -15 7 0
-9 -1 -11 0
-17 11 -5 0
